unsat
( c0
  c1
  c10
  c100
  c1003
  c1005
  c1008
  c1010
  c1016
  c1017
  c1019
  c1023
  c1031
  c1033
  c1038
  c1040
  c1045
  c1051
  c1052
  c1054
  c1064
  c1075
  c1077
  c1081
  c1087
  c1088
  c1094
  c1095
  c11
  c1101
  c1102
  c1108
  c1112
  c1116
  c1120
  c1121
  c1122
  c1124
  c1128
  c1136
  c118
  c12
  c13
  c14
  c15
  c172
  c178
  c184
  c19
  c197
  c201
  c205
  c213
  c215
  c220
  c223
  c224
  c229
  c23
  c231
  c232
  c233
  c234
  c235
  c236
  c237
  c238
  c239
  c244
  c249
  c255
  c259
  c264
  c268
  c270
  c271
  c272
  c273
  c275
  c276
  c277
  c278
  c296
  c3
  c35
  c350
  c352
  c356
  c362
  c363
  c365
  c37
  c375
  c379
  c383
  c391
  c393
  c398
  c4
  c401
  c402
  c407
  c409
  c410
  c411
  c412
  c413
  c414
  c415
  c416
  c417
  c422
  c427
  c431
  c433
  c437
  c442
  c446
  c448
  c449
  c450
  c451
  c452
  c453
  c454
  c455
  c456
  c46
  c462
  c464
  c468
  c471
  c474
  c476
  c482
  c485
  c497
  c506
  c511
  c517
  c528
  c530
  c534
  c540
  c541
  c543
  c549
  c553
  c557
  c56
  c561
  c565
  c569
  c571
  c572
  c576
  c579
  c58
  c580
  c585
  c587
  c588
  c589
  c59
  c590
  c591
  c592
  c594
  c595
  c600
  c605
  c609
  c61
  c611
  c615
  c620
  c624
  c626
  c627
  c628
  c629
  c630
  c631
  c632
  c633
  c634
  c640
  c642
  c646
  c647
  c649
  c652
  c654
  c660
  c661
  c663
  c675
  c677
  c682
  c684
  c689
  c695
  c698
  c706
  c708
  c712
  c718
  c723
  c725
  c731
  c735
  c739
  c743
  c747
  c749
  c750
  c754
  c757
  c758
  c763
  c765
  c766
  c767
  c768
  c769
  c77
  c770
  c772
  c773
  c778
  c783
  c787
  c789
  c793
  c798
  c8
  c802
  c804
  c805
  c806
  c807
  c808
  c809
  c81
  c810
  c811
  c815
  c818
  c819
  c820
  c825
  c827
  c830
  c832
  c838
  c839
  c841
  c845
  c853
  c855
  c86
  c860
  c862
  c867
  c873
  c876
  c886
  c897
  c899
  c9
  c90
  c903
  c909
  c913
  c917
  c92
  c921
  c928
  c93
  c936
  c94
  c941
  c943
  c944
  c945
  c946
  c947
  c948
  c95
  c950
  c951
  c957
  c961
  c965
  c967
  c971
  c976
  c980
  c982
  c983
  c984
  c985
  c986
  c987
  c988
  c989
  c993
  c996
  c997
  c998 )
